param N_value := 10;
param H_max := 1;
param W_max := 4.7204277966814185;
param: H W := 
1 0.23288273909142954 0.689947921296547
2 0.7939734155138141 0.5156111620379688
3 0.4964177433563278 0.5622804041703601
4 0.22947087632758723 0.2598323991447131
5 0.9355987213278807 0.09200253221246779
6 0.19049197975847332 0.14725564853352324
7 0.37750073422973096 0.6577585410027866
8 0.30497182158529546 0.5466051799704039
9 0.713337330808858 0.9814822400866119
10 0.47171211629751975 0.267651768226036;
